unknown
(model
; cardinality of BoundSet is 2
(declare-sort BoundSet 0)
; rep: @uc_BoundSet_0
; rep: @uc_BoundSet_1
(declare-sort UnboundSet 0)
(define-fun IsFighting ((BOUND_VARIABLE_355 BoundSet)) Bool true)
(define-fun IsInField ((BOUND_VARIABLE_355 BoundSet)) Bool true)
(define-fun IsOutside ((BOUND_VARIABLE_355 BoundSet)) Bool false)
)
sat
(model
; cardinality of BoundSet is 1
(declare-sort BoundSet 0)
; rep: @uc_BoundSet_0
(declare-sort UnboundSet 0)
(define-fun IsFighting ((BOUND_VARIABLE_387 BoundSet)) Bool true)
(define-fun IsInField ((BOUND_VARIABLE_387 BoundSet)) Bool true)
(define-fun IsOutside ((BOUND_VARIABLE_387 BoundSet)) Bool false)
)
